solution status: user interrupt
objective value:                            51687.447
y#1                                                 1 	(obj:5700)
y#2                                                 1 	(obj:5700)
y#3                                                 1 	(obj:5700)
y#4                                                 1 	(obj:5700)
y#5                                                 1 	(obj:5700)
y#6                                                 1 	(obj:5700)
y#7                                                 1 	(obj:5700)
y#9                                                 1 	(obj:5700)
y#10                                                1 	(obj:5700)
x#1#5                                               1 	(obj:6.749)
x#2#2                                               1 	(obj:3.825)
x#3#10                                              1 	(obj:10.2)
x#4#10                                              1 	(obj:5.576)
x#5#7                                               1 	(obj:6.375)
x#6#7                                               1 	(obj:2.941)
x#7#10                                              1 	(obj:6.868)
x#8#6                                               1 	(obj:3.179)
x#9#5                                               1 	(obj:6.494)
x#10#4                                              1 	(obj:5.491)
x#11#3                                              1 	(obj:6.205)
x#12#4                                              1 	(obj:19.397)
x#13#9                                              1 	(obj:4.828)
x#14#2                                              1 	(obj:2.516)
x#15#2                                              1 	(obj:2.669)
x#16#2                                              1 	(obj:1.904)
x#17#5                                              1 	(obj:7.548)
x#18#3                                              1 	(obj:3.961)
x#19#4                                              1 	(obj:1.19)
x#20#3                                              1 	(obj:2.499)
x#21#3                                              1 	(obj:3.604)
x#22#9                                              1 	(obj:6.596)
x#23#9                                              1 	(obj:5.576)
x#24#9                                              1 	(obj:9.877)
x#25#7                                              1 	(obj:16.49)
x#26#7                                              1 	(obj:11.05)
x#27#6                                              1 	(obj:12.223)
x#28#7                                              1 	(obj:13.379)
x#29#5                                              1 	(obj:11.084)
x#30#1                                              1 	(obj:3.621)
x#31#4                                              1 	(obj:3.128)
x#32#4                                              1 	(obj:8.551)
x#33#3                                              1 	(obj:3.162)
x#34#5                                              1 	(obj:4.947)
x#35#5                                              1 	(obj:5.338)
x#36#6                                              1 	(obj:8.857)
x#37#10                                             1 	(obj:6.137)
x#38#9                                              1 	(obj:13.668)
x#39#9                                              1 	(obj:4.131)
x#40#4                                              1 	(obj:6.698)
x#41#5                                              1 	(obj:1.598)
x#42#6                                              1 	(obj:11.747)
x#43#2                                              1 	(obj:2.465)
x#44#1                                              1 	(obj:5.678)
x#45#6                                              1 	(obj:11.424)
x#46#1                                              1 	(obj:2.159)
x#47#1                                              1 	(obj:2.55)
x#48#2                                              1 	(obj:9.299)
x#49#1                                              1 	(obj:5.304)
x#50#1                                              1 	(obj:4.59)
x#51#6                                              1 	(obj:19.601)
x#52#10                                             1 	(obj:9.928)
x#53#10                                             1 	(obj:10.285)
x#54#2                                              1 	(obj:8.806)
x#55#10                                             1 	(obj:8.874)
x#56#7                                              1 	(obj:4.607)
